171	32	4	77	
10	10	10	10

0	0	0	0	0	0	5	1	2	3	4	17
1	1	1	1	0	2	4	11	10	7	5
2	8	7	5	0	8	4	11	10	8	6
3	4	2	0	1	7	4	13	12	10	6
4	6	0	3	4	8	3	14	11	9
5	4	3	0	2	4	3	20	12	9
6	0	5	4	5	10	2	14	9
7	3	3	0	3	5	2	14	9
8	5	2	0	3	2	3	30	20	9
9	2	5	0	5	3	4	24	18	16	15
10	0	2	9	3	3	4	30	20	18	15
11	4	6	0	6	5	3	30	29	13
12	5	0	6	3	6	7	30	29	27	23	22	21	19
13	0	5	5	7	4	3	24	18	16
14	3	3	4	0	3	7	30	27	24	23	22	21	20
15	3	0	6	6	5	5	29	27	23	21	19
16	2	3	2	0	9	5	28	27	23	22	21
17	3	0	4	2	9	4	27	24	22	21
18	5	0	7	2	2	3	27	22	21
19	4	0	4	2	2	3	28	26	25
20	5	9	2	0	4	2	26	25
21	4	4	4	0	7	1	26
22	0	4	2	5	1	1	25
23	4	4	0	4	2	1	25
24	5	3	1	0	10	1	25
25	6	2	4	0	10	1	31
26	2	3	1	0	9	1	31
27	4	5	6	0	10	1	31
28	0	6	6	6	10	1	31
29	0	5	4	6	2	1	31
30	4	0	2	5	9	1	31
31	0	0	0	0	0	0
